(declare-sort $$unsorted 0)
(declare-fun tptp.op ($$unsorted $$unsorted) $$unsorted)
(assert (forall ((X0 $$unsorted) (X1 $$unsorted) (X2 $$unsorted) (X3 $$unsorted)) (= (tptp.op X0 (tptp.op X0 X1)) (tptp.op (tptp.op X2 X0) X2))))
(assert (not (forall ((X0 $$unsorted) (X1 $$unsorted) (X2 $$unsorted) (X3 $$unsorted)) (= (tptp.op X0 (tptp.op X0 X1)) (tptp.op (tptp.op X2 X3) X2)))))
(set-info :filename Equation4417_implies_Equation4429)
(check-sat-assuming ( true ))
